HmaxDs = 1.500000
HmaxUB_percent = 1.053770
HmaxUB_real = 5862.492832
FTnetDs = 1.500000
FTnetUB_percent = 1.965964
FTnetUB_real = 16654.977309
TIFgap = 0.100000
LimCIPF = 90.922923
SCIP version 1.1.0 [precision: 8 byte] [memory: block] [mode: optimized] [LP solver: Clp 1.8.2]
Copyright (c) 2002-2008 Konrad-Zuse-Zentrum fuer Informationstechnik Berlin (ZIB)

reading user parameter file </home/fabio/docs/hierarquia/models/scip.set>

read problem <data.N30.I1.s1.cluster1.T5.GL1.W3.TIFgap0.1.mps.gz>
============

original problem has 495 variables (250 bin, 0 int, 0 impl, 245 cont) and 182 constraints

solve problem
=============

presolving:
(round 1) 3 del vars, 3 del conss, 4 chg bounds, 0 chg sides, 60 chg coeffs, 0 upgd conss, 0 impls, 60 clqs
(round 2) 5 del vars, 3 del conss, 4 chg bounds, 1 chg sides, 60 chg coeffs, 0 upgd conss, 0 impls, 60 clqs
(round 3) 5 del vars, 3 del conss, 4 chg bounds, 3 chg sides, 60 chg coeffs, 0 upgd conss, 0 impls, 60 clqs
(round 4) 5 del vars, 4 del conss, 4 chg bounds, 3 chg sides, 60 chg coeffs, 61 upgd conss, 0 impls, 60 clqs
   (0.1s) probing: 101/250 (40.4%) - 0 fixings, 0 aggregations, 0 implications, 0 bound changes
   (0.1s) probing aborted: 100/100 successive totally useless probings
presolving (5 rounds):
 5 deleted vars, 4 deleted constraints, 4 tightened bounds, 0 added holes, 3 changed sides, 60 changed coefficients
 0 implications, 60 cliques
presolved problem has 490 variables (250 bin, 0 int, 0 impl, 240 cont) and 178 constraints
      1 constraints of type <knapsack>
     60 constraints of type <setppc>
    117 constraints of type <linear>
Presolving Time: 0.04

 time | node  | left  |LP iter| mem |mdpt |frac |vars |cons |ccons|cols |rows |cuts |confs|strbr|  dualbound   | primalbound  |  gap   
  0.1s|     1 |     0 |   152 |1232k|   0 |  75 | 490 | 178 | 178 | 490 | 178 |   0 |   0 |   0 | 2.209861e+01 |      --      |    Inf 
  0.4s|     1 |     0 |  1899 |1372k|   0 |  75 | 490 | 178 | 178 | 490 | 209 |  31 |   0 |   0 | 1.106815e+02 |      --      |    Inf 
  0.6s|     1 |     0 |  2283 |1484k|   0 |  79 | 490 | 178 | 178 | 490 | 233 |  55 |   0 |   0 | 3.972247e+03 |      --      |    Inf 
  0.9s|     1 |     0 |  2632 |1554k|   0 |  86 | 490 | 178 | 178 | 490 | 263 |  85 |   0 |   0 | 4.197050e+03 |      --      |    Inf 
  1.3s|     1 |     0 |  3118 |1617k|   0 |  95 | 490 | 178 | 178 | 490 | 291 | 113 |   0 |   0 | 4.724293e+03 |      --      |    Inf 
  1.6s|     1 |     0 |  3415 |1655k|   0 |  94 | 490 | 178 | 178 | 490 | 309 | 131 |   0 |   0 | 4.866317e+03 |      --      |    Inf 
  2.0s|     1 |     0 |  3661 |1704k|   0 |  96 | 490 | 178 | 178 | 490 | 332 | 154 |   0 |   0 | 4.905042e+03 |      --      |    Inf 
  2.5s|     1 |     0 |  4163 |1765k|   0 |  96 | 490 | 178 | 178 | 490 | 354 | 176 |   0 |   0 | 5.138295e+03 |      --      |    Inf 
  2.9s|     1 |     0 |  4480 |1806k|   0 |  91 | 490 | 178 | 178 | 490 | 370 | 192 |   0 |   0 | 5.212563e+03 |      --      |    Inf 
  3.3s|     1 |     0 |  4683 |1821k|   0 |  91 | 490 | 178 | 178 | 490 | 380 | 202 |   0 |   0 | 5.257491e+03 |      --      |    Inf 
  3.6s|     1 |     0 |  4873 |1832k|   0 |  99 | 490 | 178 | 178 | 490 | 386 | 208 |   0 |   0 | 5.275958e+03 |      --      |    Inf 
  8.5s|     1 |     2 |  5322 |1835k|   0 |  99 | 490 | 178 | 178 | 490 | 386 | 208 |   0 |  21 | 5.275958e+03 |      --      |    Inf 
 26.8s|   100 |    65 | 29446 |1968k|  18 |  13 | 490 | 184 | 120 | 490 | 282 | 208 |   6 | 969 | 5.289369e+03 |      --      |    Inf 
 31.4s|   200 |   101 | 45733 |2033k|  22 |  73 | 490 | 203 | 165 | 490 | 282 | 208 |  25 |1080 | 5.289369e+03 |      --      |    Inf 
 33.9s|   300 |   147 | 57773 |2108k|  22 |   5 | 490 | 206 |  88 | 490 | 282 | 208 |  28 |1094 | 5.289369e+03 |      --      |    Inf 
 time | node  | left  |LP iter| mem |mdpt |frac |vars |cons |ccons|cols |rows |cuts |confs|strbr|  dualbound   | primalbound  |  gap   
 38.2s|   400 |   184 | 73962 |2165k|  24 |  69 | 490 | 216 | 159 | 490 | 282 | 208 |  38 |1167 | 5.289369e+03 |      --      |    Inf 
 42.1s|   500 |   205 | 89901 |2203k|  30 |  77 | 490 | 236 | 177 | 490 | 282 | 208 |  58 |1197 | 5.289369e+03 |      --      |    Inf 
 45.6s|   600 |   233 |107225 |2254k|  30 |  25 | 490 | 242 | 114 | 490 | 282 | 208 |  64 |1207 | 5.289369e+03 |      --      |    Inf 
 48.5s|   700 |   265 |119943 |2319k|  32 |  22 | 490 | 253 | 157 | 490 | 282 | 208 |  75 |1239 | 5.291287e+03 |      --      |    Inf 
 54.2s|   800 |   289 |142985 |2365k|  32 |   - | 490 | 261 | 122 | 490 | 282 | 208 |  83 |1302 | 5.291287e+03 |      --      |    Inf 
 58.4s|   900 |   324 |159870 |2433k|  32 |   - | 490 | 271 | 141 | 490 | 282 | 208 |  93 |1343 | 5.291287e+03 |      --      |    Inf 
 61.4s|  1000 |   352 |174851 |2503k|  36 |  61 | 490 | 278 | 159 | 490 | 282 | 208 | 100 |1355 | 5.291287e+03 |      --      |    Inf 
 64.0s|  1100 |   380 |186193 |2572k|  41 |   - | 490 | 289 |  89 | 490 | 282 | 208 | 112 |1360 | 5.291287e+03 |      --      |    Inf 
 67.4s|  1200 |   406 |199685 |2619k|  41 |   - | 490 | 298 | 110 | 490 | 282 | 208 | 121 |1407 | 5.291287e+03 |      --      |    Inf 
 71.8s|  1300 |   432 |214649 |2663k|  41 |   9 | 490 | 307 | 102 | 490 | 282 | 208 | 130 |1454 | 5.291287e+03 |      --      |    Inf 
 75.4s|  1400 |   466 |229048 |2727k|  41 |   - | 490 | 315 |  95 | 490 | 282 | 208 | 138 |1510 | 5.291287e+03 |      --      |    Inf 
 79.1s|  1500 |   494 |246350 |2787k|  41 |   - | 490 | 327 | 124 | 490 | 282 | 208 | 150 |1535 | 5.291287e+03 |      --      |    Inf 
 82.8s|  1600 |   517 |265293 |2838k|  41 |   - | 490 | 347 | 140 | 490 | 282 | 208 | 170 |1541 | 5.291287e+03 |      --      |    Inf 
 86.1s|  1700 |   541 |279094 |2883k|  41 |  42 | 490 | 360 | 183 | 490 | 282 | 208 | 183 |1543 | 5.291287e+03 |      --      |    Inf 
 90.3s|  1800 |   575 |296059 |2950k|  41 |  38 | 490 | 364 | 180 | 490 | 282 | 208 | 188 |1598 | 5.291287e+03 |      --      |    Inf 
 time | node  | left  |LP iter| mem |mdpt |frac |vars |cons |ccons|cols |rows |cuts |confs|strbr|  dualbound   | primalbound  |  gap   
 93.6s|  1900 |   604 |306710 |3003k|  41 |   - | 490 | 379 | 131 | 490 | 282 | 208 | 203 |1634 | 5.291287e+03 |      --      |    Inf 
 97.5s|  2000 |   624 |323248 |3040k|  41 |   - | 490 | 388 | 141 | 490 | 282 | 208 | 212 |1668 | 5.291287e+03 |      --      |    Inf 
  100s|  2100 |   640 |336210 |3090k|  42 |   - | 490 | 407 |  92 | 490 | 282 | 208 | 231 |1694 | 5.291287e+03 |      --      |    Inf 
  104s|  2200 |   667 |354844 |3139k|  42 |  56 | 490 | 416 | 264 | 490 | 282 | 208 | 240 |1708 | 5.291287e+03 |      --      |    Inf 
  107s|  2300 |   693 |368436 |3184k|  42 |   - | 490 | 425 | 110 | 490 | 282 | 208 | 249 |1710 | 5.291287e+03 |      --      |    Inf 
  111s|  2400 |   725 |385894 |3237k|  42 |   - | 490 | 433 |  84 | 490 | 282 | 208 | 257 |1753 | 5.292103e+03 |      --      |    Inf 
  114s|  2500 |   753 |401304 |3288k|  42 |  14 | 490 | 440 | 131 | 490 | 282 | 208 | 264 |1798 | 5.292103e+03 |      --      |    Inf 
  119s|  2600 |   773 |417845 |3346k|  42 |  36 | 490 | 457 | 145 | 490 | 282 | 208 | 281 |1849 | 5.292297e+03 |      --      |    Inf 
  123s|  2700 |   795 |432927 |3385k|  42 |  44 | 490 | 462 | 220 | 490 | 282 | 208 | 286 |1862 | 5.292297e+03 |      --      |    Inf 
  126s|  2800 |   825 |449151 |3423k|  42 |  74 | 490 | 478 | 246 | 490 | 282 | 208 | 302 |1868 | 5.292297e+03 |      --      |    Inf 
  129s|  2900 |   863 |461744 |3476k|  42 |  14 | 490 | 483 | 126 | 490 | 282 | 208 | 307 |1878 | 5.292377e+03 |      --      |    Inf 
  132s|  3000 |   888 |479983 |3532k|  42 |  37 | 490 | 501 | 187 | 490 | 282 | 208 | 325 |1882 | 5.292455e+03 |      --      |    Inf 
  137s|  3100 |   898 |497052 |3558k|  42 |   - | 490 | 519 | 102 | 490 | 282 | 208 | 343 |1883 | 5.293617e+03 |      --      |    Inf 
  140s|  3200 |   925 |510379 |3612k|  42 |  13 | 490 | 530 | 169 | 490 | 282 | 208 | 354 |1883 | 5.294966e+03 |      --      |    Inf 
  144s|  3300 |   947 |530358 |3650k|  42 |  28 | 490 | 537 | 195 | 490 | 282 | 208 | 361 |1883 | 5.295120e+03 |      --      |    Inf 
 time | node  | left  |LP iter| mem |mdpt |frac |vars |cons |ccons|cols |rows |cuts |confs|strbr|  dualbound   | primalbound  |  gap   
  146s|  3400 |   987 |542909 |3712k|  42 |  36 | 490 | 540 | 190 | 490 | 282 | 208 | 364 |1884 | 5.295248e+03 |      --      |    Inf 
  149s|  3500 |  1025 |555395 |3771k|  42 |  18 | 490 | 540 | 157 | 490 | 282 | 208 | 364 |1884 | 5.295248e+03 |      --      |    Inf 
  152s|  3600 |  1049 |569933 |3825k|  42 |  33 | 490 | 548 | 202 | 490 | 282 | 208 | 374 |1884 | 5.295415e+03 |      --      |    Inf 
  155s|  3700 |  1074 |586220 |3872k|  42 |   - | 490 | 564 | 181 | 490 | 282 | 208 | 390 |1884 | 5.295453e+03 |      --      |    Inf 
  158s|  3800 |  1106 |600636 |3931k|  42 |  65 | 490 | 568 | 248 | 490 | 282 | 208 | 395 |1884 | 5.295732e+03 |      --      |    Inf 
  161s|  3900 |  1130 |615009 |3980k|  42 |   - | 490 | 580 | 107 | 490 | 282 | 208 | 408 |1885 | 5.295732e+03 |      --      |    Inf 
  165s|  4000 |  1154 |625011 |4023k|  42 |   6 | 490 | 605 | 102 | 490 | 282 | 208 | 433 |1885 | 5.295732e+03 |      --      |    Inf 
  168s|  4100 |  1178 |638926 |4086k|  42 |  28 | 490 | 620 | 152 | 490 | 282 | 208 | 449 |1885 | 5.295732e+03 |      --      |    Inf 
  171s|  4200 |  1200 |654542 |4128k|  42 |  58 | 490 | 629 | 229 | 490 | 282 | 208 | 461 |1885 | 5.296528e+03 |      --      |    Inf 
  178s|  4300 |  1224 |669235 |4173k|  42 |  29 | 490 | 641 | 167 | 490 | 282 | 208 | 473 |1885 | 5.296779e+03 |      --      |    Inf 
  181s|  4400 |  1239 |681425 |4225k|  53 |   - | 490 | 657 | 125 | 490 | 282 | 208 | 491 |1885 | 5.296779e+03 |      --      |    Inf 
  184s|  4500 |  1262 |694616 |4279k|  53 |  42 | 490 | 665 | 228 | 490 | 282 | 208 | 504 |1915 | 5.296884e+03 |      --      |    Inf 
  187s|  4600 |  1286 |704193 |4319k|  53 |   - | 490 | 673 | 117 | 490 | 282 | 208 | 512 |1931 | 5.296884e+03 |      --      |    Inf 
  189s|  4700 |  1310 |715865 |4376k|  53 |  30 | 490 | 671 | 150 | 490 | 282 | 208 | 515 |1971 | 5.297007e+03 |      --      |    Inf 
  192s|  4800 |  1326 |724112 |4409k|  53 |  40 | 490 | 670 | 160 | 490 | 282 | 208 | 515 |1992 | 5.297007e+03 |      --      |    Inf 
 time | node  | left  |LP iter| mem |mdpt |frac |vars |cons |ccons|cols |rows |cuts |confs|strbr|  dualbound   | primalbound  |  gap   
  197s|  4900 |  1345 |744513 |4460k|  53 |  18 | 490 | 670 | 131 | 490 | 282 | 208 | 521 |2034 | 5.297617e+03 |      --      |    Inf 
  201s|  5000 |  1372 |763110 |4516k|  53 |   - | 490 | 675 | 175 | 490 | 282 | 208 | 526 |2037 | 5.297617e+03 |      --      |    Inf 
  203s|  5100 |  1396 |774641 |4557k|  53 |   - | 490 | 677 | 102 | 490 | 282 | 208 | 528 |2038 | 5.297617e+03 |      --      |    Inf 
  206s|  5200 |  1420 |786401 |4602k|  53 |   - | 490 | 680 | 151 | 490 | 282 | 208 | 532 |2038 | 5.298191e+03 |      --      |    Inf 
(node 5259) unresolved numerical troubles in LP 6342
  209s|  5300 |  1443 |800877 |4651k|  53 |   - | 490 | 685 | 148 | 490 | 282 | 208 | 540 |2070 | 5.298570e+03 |      --      |    Inf 
  213s|  5400 |  1479 |819580 |4704k|  53 |   - | 490 | 690 | 113 | 490 | 282 | 208 | 547 |2121 | 5.299127e+03 |      --      |    Inf 
  217s|  5500 |  1499 |836544 |4748k|  53 |  22 | 490 | 697 | 190 | 490 | 282 | 208 | 555 |2161 | 5.299504e+03 |      --      |    Inf 
  220s|  5600 |  1520 |850396 |4792k|  53 |   - | 490 | 702 | 153 | 490 | 282 | 208 | 561 |2181 | 5.299931e+03 |      --      |    Inf 
  223s|  5700 |  1538 |863509 |4839k|  53 |  12 | 490 | 707 | 146 | 490 | 282 | 208 | 570 |2188 | 5.304037e+03 |      --      |    Inf 
  226s|  5800 |  1566 |875741 |4887k|  53 |  49 | 490 | 708 | 252 | 490 | 282 | 208 | 574 |2192 | 5.304563e+03 |      --      |    Inf 
  229s|  5900 |  1582 |886548 |4924k|  53 |  22 | 490 | 723 | 132 | 490 | 282 | 208 | 590 |2194 | 5.305982e+03 |      --      |    Inf 
  231s|  6000 |  1602 |897719 |4968k|  53 |   - | 490 | 725 | 131 | 490 | 282 | 208 | 595 |2196 | 5.305982e+03 |      --      |    Inf 
  235s|  6100 |  1624 |909450 |5007k|  53 |   3 | 490 | 732 | 146 | 490 | 282 | 208 | 602 |2221 | 5.306015e+03 |      --      |    Inf 
  237s|  6200 |  1643 |917040 |5036k|  53 |   - | 490 | 729 | 146 | 490 | 282 | 208 | 605 |2234 | 5.306015e+03 |      --      |    Inf 
  241s|  6300 |  1663 |932441 |5077k|  53 |   - | 490 | 730 | 222 | 490 | 282 | 208 | 613 |2268 | 5.311456e+03 |      --      |    Inf 
 time | node  | left  |LP iter| mem |mdpt |frac |vars |cons |ccons|cols |rows |cuts |confs|strbr|  dualbound   | primalbound  |  gap   
  242s|  6400 |  1695 |940861 |5125k|  53 |   - | 490 | 734 | 110 | 490 | 282 | 208 | 619 |2286 | 5.311456e+03 |      --      |    Inf 
  245s|  6500 |  1713 |949962 |5157k|  53 |   1 | 490 | 736 | 169 | 490 | 282 | 208 | 622 |2291 | 5.312217e+03 |      --      |    Inf 
  247s|  6600 |  1723 |960041 |5186k|  53 |   - | 490 | 739 | 109 | 490 | 282 | 208 | 627 |2329 | 5.314350e+03 |      --      |    Inf 
  249s|  6700 |  1743 |968524 |5213k|  53 |   6 | 490 | 742 | 130 | 490 | 282 | 208 | 632 |2341 | 5.314350e+03 |      --      |    Inf 
  252s|  6800 |  1770 |980148 |5261k|  53 |   - | 490 | 742 | 133 | 490 | 282 | 208 | 635 |2349 | 5.314900e+03 |      --      |    Inf 
  253s|  6900 |  1792 |987815 |5295k|  53 |  13 | 490 | 757 | 109 | 490 | 282 | 208 | 652 |2349 | 5.314900e+03 |      --      |    Inf 
  255s|  7000 |  1805 |995702 |5331k|  53 |   - | 490 | 756 |  98 | 490 | 282 | 208 | 656 |2353 | 5.314900e+03 |      --      |    Inf 
  257s|  7100 |  1818 |  1005k|5349k|  53 |  66 | 490 | 765 | 262 | 490 | 282 | 208 | 667 |2354 | 5.314900e+03 |      --      |    Inf 
  261s|  7200 |  1842 |  1017k|5390k|  53 |  23 | 490 | 762 | 304 | 490 | 282 | 208 | 668 |2354 | 5.314900e+03 |      --      |    Inf 
  263s|  7300 |  1854 |  1025k|5409k|  53 |   - | 490 | 762 | 147 | 490 | 282 | 208 | 671 |2356 | 5.314900e+03 |      --      |    Inf 
  265s|  7400 |  1884 |  1036k|5458k|  53 |   - | 490 | 759 | 147 | 490 | 282 | 208 | 673 |2389 | 5.317569e+03 |      --      |    Inf 
  267s|  7500 |  1900 |  1045k|5497k|  53 |   - | 490 | 767 | 260 | 490 | 282 | 208 | 688 |2413 | 5.318815e+03 |      --      |    Inf 
  269s|  7600 |  1914 |  1053k|5523k|  53 |  27 | 490 | 768 | 126 | 490 | 282 | 208 | 692 |2435 | 5.319481e+03 |      --      |    Inf 
  272s|  7700 |  1924 |  1062k|5548k|  53 |   - | 490 | 770 |  95 |   0 |   0 | 208 | 696 |2453 | 5.319481e+03 |      --      |    Inf 
  274s|  7800 |  1940 |  1071k|5587k|  53 |   - | 490 | 788 |  73 | 490 | 282 | 208 | 715 |2467 | 5.321157e+03 |      --      |    Inf 
 time | node  | left  |LP iter| mem |mdpt |frac |vars |cons |ccons|cols |rows |cuts |confs|strbr|  dualbound   | primalbound  |  gap   
  276s|  7900 |  1964 |  1080k|5620k|  53 |   - | 490 | 788 | 150 | 490 | 282 | 208 | 718 |2489 | 5.321157e+03 |      --      |    Inf 
  277s|  8000 |  1980 |  1086k|5644k|  53 |  16 | 490 | 793 | 120 | 490 | 282 | 208 | 725 |2491 | 5.321157e+03 |      --      |    Inf 
  279s|  8100 |  1994 |  1093k|5678k|  53 |  23 | 490 | 793 | 254 | 490 | 282 | 208 | 727 |2499 | 5.322669e+03 |      --      |    Inf 
  281s|  8200 |  2010 |  1101k|5709k|  53 |  27 | 490 | 804 | 208 | 490 | 282 | 208 | 739 |2500 | 5.322669e+03 |      --      |    Inf 
  283s|  8300 |  2026 |  1107k|5748k|  53 |   - | 490 | 807 | 164 | 490 | 282 | 208 | 743 |2502 | 5.322692e+03 |      --      |    Inf 
  285s|  8400 |  2054 |  1118k|5798k|  53 |  20 | 490 | 806 | 179 | 490 | 282 | 208 | 748 |2509 | 5.328132e+03 |      --      |    Inf 
  287s|  8500 |  2061 |  1127k|5822k|  53 |   - | 490 | 810 | 145 | 490 | 282 | 208 | 754 |2515 | 5.328132e+03 |      --      |    Inf 
  289s|  8600 |  2075 |  1135k|5847k|  53 |   - | 490 | 820 | 137 | 490 | 282 | 208 | 767 |2515 | 5.328999e+03 |      --      |    Inf 
  291s|  8700 |  2083 |  1143k|5865k|  53 |   - | 490 | 817 | 126 | 490 | 282 | 208 | 768 |2518 | 5.331957e+03 |      --      |    Inf 
  293s|  8800 |  2106 |  1154k|5911k|  53 |   - | 490 | 827 | 215 | 490 | 282 | 208 | 779 |2526 | 5.333430e+03 |      --      |    Inf 
  298s|  8900 |  2116 |  1168k|5933k|  53 |   6 | 490 | 826 | 188 | 490 | 282 | 208 | 782 |2555 | 5.335200e+03 |      --      |    Inf 
  301s|  9000 |  2130 |  1176k|5957k|  53 |   6 | 490 | 825 | 166 | 490 | 282 | 208 | 784 |2578 | 5.338539e+03 |      --      |    Inf 
  304s|  9100 |  2148 |  1187k|6001k|  53 |  12 | 490 | 816 | 128 | 490 | 282 | 208 | 784 |2599 | 5.341140e+03 |      --      |    Inf 
  306s|  9200 |  2168 |  1196k|6041k|  53 |   - | 490 | 821 | 178 | 490 | 282 | 208 | 793 |2628 | 5.341411e+03 |      --      |    Inf 
  309s|  9300 |  2180 |  1207k|6062k|  53 |   - | 490 | 822 | 117 | 490 | 282 | 208 | 800 |2634 | 5.341411e+03 |      --      |    Inf 
 time | node  | left  |LP iter| mem |mdpt |frac |vars |cons |ccons|cols |rows |cuts |confs|strbr|  dualbound   | primalbound  |  gap   
  311s|  9400 |  2198 |  1216k|6095k|  53 |   7 | 490 | 822 | 149 | 490 | 282 | 208 | 809 |2645 | 5.344587e+03 |      --      |    Inf 
  314s|  9500 |  2226 |  1229k|6139k|  53 |  65 | 490 | 820 | 467 | 490 | 282 | 208 | 813 |2655 | 5.346407e+03 |      --      |    Inf 
  317s|  9600 |  2238 |  1242k|6164k|  53 |  18 | 490 | 831 | 206 | 490 | 282 | 208 | 828 |2655 | 5.349023e+03 |      --      |    Inf 
  319s|  9700 |  2258 |  1250k|6194k|  53 |   - | 490 | 838 | 174 | 490 | 282 | 208 | 838 |2663 | 5.349527e+03 |      --      |    Inf 
  321s|  9800 |  2268 |  1258k|6219k|  53 |   - | 490 | 840 | 111 | 490 | 282 | 208 | 844 |2663 | 5.349527e+03 |      --      |    Inf 
  323s|  9900 |  2287 |  1268k|6259k|  53 |   - | 490 | 840 |  74 |   0 |   0 | 208 | 848 |2663 | 5.351977e+03 |      --      |    Inf 
  325s| 10000 |  2302 |  1274k|6289k|  53 |   - | 490 | 842 | 100 | 490 | 282 | 208 | 852 |2663 | 5.351977e+03 |      --      |    Inf 
  327s| 10100 |  2316 |  1283k|6313k|  53 |   7 | 490 | 839 | 100 | 490 | 282 | 208 | 853 |2677 | 5.351977e+03 |      --      |    Inf 
  329s| 10200 |  2330 |  1292k|6334k|  53 |  23 | 490 | 841 | 114 | 490 | 282 | 208 | 860 |2688 | 5.351977e+03 |      --      |    Inf 
  331s| 10300 |  2346 |  1303k|6358k|  53 |  30 | 490 | 844 | 241 | 490 | 282 | 208 | 871 |2716 | 5.358157e+03 |      --      |    Inf 
  334s| 10400 |  2356 |  1312k|6369k|  53 |  12 | 490 | 844 | 227 | 490 | 282 | 208 | 878 |2743 | 5.358157e+03 |      --      |    Inf 
  336s| 10500 |  2379 |  1321k|6406k|  53 |  24 | 490 | 850 | 216 | 490 | 282 | 208 | 889 |2767 | 5.358157e+03 |      --      |    Inf 
  341s| 10600 |  2389 |  1336k|6429k|  59 |   - | 490 | 856 | 151 | 490 | 282 | 208 | 903 |2779 | 5.358157e+03 |      --      |    Inf 
  344s| 10700 |  2404 |  1348k|6446k|  59 |   - | 490 | 852 | 200 | 490 | 282 | 208 | 908 |2806 | 5.358369e+03 |      --      |    Inf 
  346s| 10800 |  2428 |  1360k|6477k|  59 |  21 | 490 | 847 | 417 | 490 | 282 | 208 | 911 |2812 | 5.359797e+03 |      --      |    Inf 
 time | node  | left  |LP iter| mem |mdpt |frac |vars |cons |ccons|cols |rows |cuts |confs|strbr|  dualbound   | primalbound  |  gap   
  348s| 10900 |  2441 |  1367k|6499k|  59 |  20 | 490 | 857 | 188 | 490 | 282 | 208 | 925 |2813 | 5.359797e+03 |      --      |    Inf 
  350s| 11000 |  2467 |  1377k|6544k|  59 |  27 | 490 | 855 | 186 | 490 | 282 | 208 | 931 |2813 | 5.360170e+03 |      --      |    Inf 
  352s| 11100 |  2476 |  1387k|6558k|  59 |  59 | 490 | 854 | 333 | 490 | 282 | 208 | 938 |2814 | 5.360170e+03 |      --      |    Inf 
  355s| 11200 |  2490 |  1399k|6586k|  59 |   - | 490 | 850 | 128 | 490 | 282 | 208 | 939 |2814 | 5.360170e+03 |      --      |    Inf 
  356s| 11300 |  2512 |  1405k|6617k|  59 |   - | 490 | 848 | 134 | 490 | 282 | 208 | 939 |2814 | 5.360170e+03 |      --      |    Inf 
  358s| 11400 |  2530 |  1415k|6647k|  59 |   - | 490 | 843 | 120 | 490 | 282 | 208 | 941 |2815 | 5.362333e+03 |      --      |    Inf 
  361s| 11500 |  2550 |  1424k|6688k|  59 |  19 | 490 | 850 | 182 | 490 | 282 | 208 | 956 |2821 | 5.368411e+03 |      --      |    Inf 
  364s| 11600 |  2558 |  1433k|6712k|  59 |   - | 490 | 856 | 232 | 490 | 282 | 208 | 965 |2862 | 5.368951e+03 |      --      |    Inf 
  366s| 11700 |  2580 |  1442k|6748k|  59 |   - | 490 | 848 | 208 | 490 | 282 | 208 | 968 |2862 | 5.372632e+03 |      --      |    Inf 
  369s| 11800 |  2600 |  1450k|6784k|  59 |   8 | 490 | 850 | 158 | 490 | 282 | 208 | 980 |2880 | 5.375009e+03 |      --      |    Inf 
  371s| 11900 |  2621 |  1458k|6830k|  59 |   - | 490 | 849 |  99 | 490 | 282 | 208 | 985 |2901 | 5.382555e+03 |      --      |    Inf 
  374s| 12000 |  2643 |  1472k|6858k|  59 |   - | 490 | 842 | 245 | 490 | 282 | 208 | 989 |2927 | 5.397192e+03 |      --      |    Inf 
  377s| 12100 |  2660 |  1484k|6881k|  59 |  16 | 490 | 837 | 275 | 490 | 282 | 208 | 993 |2944 | 5.399431e+03 |      --      |    Inf 
  380s| 12200 |  2692 |  1494k|6929k|  59 |   - | 490 | 835 | 223 | 490 | 282 | 208 | 995 |2956 | 5.399456e+03 |      --      |    Inf 
  381s| 12300 |  2707 |  1500k|6943k|  59 |  13 | 490 | 834 | 147 | 490 | 282 | 208 | 997 |2956 | 5.400110e+03 |      --      |    Inf 
 time | node  | left  |LP iter| mem |mdpt |frac |vars |cons |ccons|cols |rows |cuts |confs|strbr|  dualbound   | primalbound  |  gap   
  383s| 12400 |  2725 |  1507k|6972k|  59 |  12 | 490 | 834 | 128 | 490 | 282 | 208 |1002 |2957 | 5.400110e+03 |      --      |    Inf 
  385s| 12500 |  2741 |  1515k|7003k|  59 |  10 | 490 | 835 |  75 | 490 | 282 | 208 |1011 |2959 | 5.400110e+03 |      --      |    Inf 
  386s| 12600 |  2753 |  1522k|7031k|  59 |   1 | 490 | 837 | 107 | 490 | 282 | 208 |1015 |2961 | 5.400110e+03 |      --      |    Inf 
  388s| 12700 |  2769 |  1528k|7056k|  59 |  28 | 490 | 833 | 152 | 490 | 282 | 208 |1018 |2962 | 5.400175e+03 |      --      |    Inf 
  392s| 12800 |  2781 |  1544k|7081k|  59 |   - | 490 | 824 | 144 | 490 | 282 | 208 |1023 |2963 | 5.400694e+03 |      --      |    Inf 
  394s| 12900 |  2801 |  1553k|7121k|  59 |  50 | 490 | 822 | 311 | 490 | 282 | 208 |1030 |2963 | 5.401378e+03 |      --      |    Inf 
  397s| 13000 |  2823 |  1564k|7159k|  59 |  14 | 490 | 804 | 193 | 490 | 282 | 208 |1030 |2976 | 5.401452e+03 |      --      |    Inf 
  399s| 13100 |  2825 |  1572k|7178k|  59 |   8 | 490 | 804 | 173 | 490 | 282 | 208 |1037 |2989 | 5.401452e+03 |      --      |    Inf 
  401s| 13200 |  2840 |  1579k|7225k|  59 |   3 | 490 | 791 | 143 | 490 | 282 | 208 |1039 |2999 | 5.401696e+03 |      --      |    Inf 
  405s| 13300 |  2858 |  1591k|7258k|  59 |   - | 490 | 792 |  96 | 490 | 282 | 208 |1045 |3022 | 5.401723e+03 |      --      |    Inf 
  407s| 13400 |  2872 |  1599k|7282k|  59 |   - | 490 | 792 | 145 | 490 | 282 | 208 |1046 |3041 | 5.402165e+03 |      --      |    Inf 
  409s| 13500 |  2886 |  1607k|7311k|  59 |   - | 490 | 797 | 117 | 490 | 282 | 208 |1053 |3055 | 5.403304e+03 |      --      |    Inf 
  410s| 13600 |  2898 |  1613k|7334k|  59 |   - | 490 | 789 |  68 | 490 | 282 | 208 |1056 |3068 | 5.403304e+03 |      --      |    Inf 
  415s| 13700 |  2920 |  1620k|7378k|  59 |   - | 490 | 804 | 122 | 490 | 282 | 208 |1085 |3081 | 5.404518e+03 |      --      |    Inf 
  417s| 13800 |  2926 |  1628k|7396k|  59 |  10 | 490 | 800 | 145 | 490 | 282 | 208 |1087 |3092 | 5.404518e+03 |      --      |    Inf 
 time | node  | left  |LP iter| mem |mdpt |frac |vars |cons |ccons|cols |rows |cuts |confs|strbr|  dualbound   | primalbound  |  gap   
  419s| 13900 |  2942 |  1637k|7429k|  59 |   - | 490 | 797 | 142 | 490 | 282 | 208 |1089 |3096 | 5.404518e+03 |      --      |    Inf 
  425s| 14000 |  2960 |  1651k|7465k|  59 |   - | 490 | 788 | 113 | 490 | 282 | 208 |1097 |3102 | 5.404685e+03 |      --      |    Inf 
  428s| 14100 |  2978 |  1663k|7497k|  59 |   - | 490 | 787 | 138 | 490 | 282 | 208 |1104 |3112 | 5.404893e+03 |      --      |    Inf 
  430s| 14200 |  2984 |  1672k|7513k|  59 |   - | 490 | 783 | 153 | 490 | 282 | 208 |1109 |3114 | 5.404939e+03 |      --      |    Inf 
  433s| 14300 |  3002 |  1686k|7534k|  59 |   - | 490 | 778 | 169 | 490 | 282 | 208 |1111 |3115 | 5.404947e+03 |      --      |    Inf 
  436s| 14400 |  3014 |  1693k|7561k|  59 |  13 | 490 | 788 | 161 | 490 | 282 | 208 |1126 |3115 | 5.405002e+03 |      --      |    Inf 
  438s| 14500 |  3016 |  1701k|7570k|  59 |  78 | 490 | 788 | 370 | 490 | 282 | 208 |1132 |3115 | 5.405079e+03 |      --      |    Inf 
  439s| 14600 |  3036 |  1709k|7601k|  59 |  52 | 490 | 776 | 235 | 490 | 282 | 208 |1132 |3124 | 5.405123e+03 |      --      |    Inf 
  441s| 14700 |  3042 |  1719k|7622k|  59 |   - | 490 | 774 | 160 | 490 | 282 | 208 |1137 |3142 | 5.407046e+03 |      --      |    Inf 
  444s| 14800 |  3060 |  1729k|7648k|  59 |   - | 490 | 764 | 142 | 490 | 282 | 208 |1137 |3166 | 5.409576e+03 |      --      |    Inf 
  446s| 14900 |  3081 |  1736k|7686k|  59 |  29 | 490 | 768 | 185 | 490 | 282 | 208 |1148 |3178 | 5.409732e+03 |      --      |    Inf 
  447s| 15000 |  3089 |  1744k|7706k|  59 |   6 | 490 | 765 |  82 | 490 | 282 | 208 |1152 |3190 | 5.411853e+03 |      --      |    Inf 
  449s| 15100 |  3093 |  1749k|7709k|  59 |  10 | 490 | 762 | 100 | 490 | 282 | 208 |1155 |3202 | 5.411853e+03 |      --      |    Inf 
  453s| 15200 |  3103 |  1765k|7731k|  59 |   - | 490 | 757 | 173 | 490 | 282 | 208 |1155 |3230 | 5.412377e+03 |      --      |    Inf 
  454s| 15300 |  3115 |  1772k|7749k|  59 |   - | 490 | 750 |  93 | 490 | 282 | 208 |1156 |3246 | 5.413219e+03 |      --      |    Inf 
 time | node  | left  |LP iter| mem |mdpt |frac |vars |cons |ccons|cols |rows |cuts |confs|strbr|  dualbound   | primalbound  |  gap   
  458s| 15400 |  3130 |  1787k|7775k|  59 |   - | 490 | 740 | 171 | 490 | 282 | 208 |1157 |3249 | 5.414080e+03 |      --      |    Inf 
(node 15426) unresolved numerical troubles in LP 18690

SCIP Status        : solving was interrupted [time limit reached]
Solving Time (sec) : 10000.01
Solving Nodes      : 15426
Primal Bound       : +1.00000000000000e+20 (0 solutions)
Dual Bound         : +5.41506844441755e+03
Gap                : infinite

primal solution:
================

no solution available

Statistics
==========

SCIP Status        : solving was interrupted [time limit reached]
Solving Time       :   10000.01
Original Problem   :
  Problem name     : labtel
  Variables        : 495 (250 binary, 0 integer, 0 implicit integer, 245 continuous)
  Constraints      : 182 initial, 182 maximal
Presolved Problem  :
  Problem name     : t_labtel
  Variables        : 490 (250 binary, 0 integer, 0 implicit integer, 240 continuous)
  Constraints      : 178 initial, 860 maximal
Presolvers         :       Time  FixedVars   AggrVars   ChgTypes  ChgBounds   AddHoles    DelCons   ChgSides   ChgCoefs
  trivial          :       0.00          0          0          0          0          0          0          0          0
  dualfix          :       0.00          0          0          0          0          0          0          0          0
  boundshift       :       0.00          0          0          0          0          0          0          0          0
  inttobinary      :       0.00          0          0          0          0          0          0          0          0
  implics          :       0.00          0          0          0          0          0          0          0          0
  probing          :       0.03          0          0          0          0          0          0          0          0
  knapsack         :       0.00          0          0          0          0          0          0          0          0
  setppc           :       0.00          0          0          0          0          0          0          0          0
  linear           :       0.01          0          5          0          4          0          4          3         60
  logicor          :       0.00          0          0          0          0          0          0          0          0
  bounddisjunction :       0.00          0          0          0          0          0          0          0          0
  root node        :          -          0          -          -          0          -          -          -          -
Constraints        :     Number  #Separate #Propagate    #EnfoLP    #EnfoPS    Cutoffs    DomReds       Cuts      Conss   Children
  integral         :          0          0          0       9417          0          4        162          0          0      18610
  knapsack         :          1         11      38876          0          2          2       6387          0          0          0
  setppc           :         60         11      43447          0          2         76     141854          0          0          0
  linear           :        117         11      43447          0          0        311     282468          1          0          0
  logicor          :          0+         0      17048          0          0         70       3917          0          0          0
  bounddisjunction :          0+         0       5743          0          0          0       1114          0          0          0
  countsols        :          0          0          0          0          2          0          0          0          0          0
Constraint Timings :  TotalTime   Separate  Propagate     EnfoLP     EnfoPS
  integral         :      42.37       0.00       0.00      42.37       0.00
  knapsack         :       0.07       0.00       0.07       0.00       0.00
  setppc           :       0.66       0.00       0.66       0.00       0.00
  linear           :       4.80       0.00       4.80       0.00       0.00
  logicor          :       0.46       0.00       0.46       0.00       0.00
  bounddisjunction :       0.06       0.00       0.06       0.00       0.00
  countsols        :       0.00       0.00       0.00       0.00       0.00
Propagators        :       Time      Calls    Cutoffs    DomReds
  rootredcost      :       0.03          0          0          0
  pseudoobj        :       0.58      43472          0          0
Conflict Analysis  :       Time      Calls    Success  Conflicts   Literals    Reconvs ReconvLits   LP Iters
  propagation      :       0.06        459        453       2228       50.5         22       55.5          -
  infeasible LP    :       1.44       5692        257       1826       39.0          2       68.5          0
  bound exceed. LP :       0.00          0          0          0        0.0          0        0.0          0
  strong branching :       0.00          0          0          0        0.0          0        0.0          0
  pseudo solution  :       0.00          0          0          0        0.0          0        0.0          -
  applied globally :          -          -          -       1141       15.1          -          -          -
  applied locally  :          -          -          -         16       68.9          -          -          -
Separators         :       Time      Calls    Cutoffs    DomReds       Cuts      Conss
  cut pool         :       0.00         10          -          -         32          -    (maximal pool size: 437)
  redcost          :       0.20       9512          0        204          0          0
  impliedbounds    :       0.00         11          0          0          0          0
  intobj           :       0.00          0          0          0          0          0
  gomory           :       0.16         11          0          0          3          0
  strongcg         :       0.12         11          0          0          0          0
  cmir             :       1.51         10          0          0        410          0
  flowcover        :       0.92         10          0          0         40          0
  clique           :       0.00         11          0          0          0          0
  zerohalf         :       0.00          0          0          0          0          0
  mcf              :       0.00          0          0          0          0          0
Pricers            :       Time      Calls       Vars
  problem variables:       0.00          0          0
Branching Rules    :       Time      Calls    Cutoffs    DomReds       Cuts      Conss   Children
  relpscost        :      42.35       9417          4        162          0          0      18610
  pscost           :       0.00          0          0          0          0          0          0
  inference        :       0.00          2          0          0          0          0          4
  mostinf          :       0.00          0          0          0          0          0          0
  leastinf         :       0.00          0          0          0          0          0          0
  fullstrong       :       0.00          0          0          0          0          0          0
  allfullstrong    :       0.00          0          0          0          0          0          0
  random           :       0.00          0          0          0          0          0          0
Primal Heuristics  :       Time      Calls      Found
  LP solutions     :       0.00          -          0
  pseudo solutions :       0.00          -          0
  oneopt           :       0.04          0          0
  rootsoldiving    :       0.01          0          0
  linesearchdiving :       0.00          0          0
  guideddiving     :       0.00          0          0
  crossover        :       0.00          0          0
  coefdiving       :       0.04          1          0
  pscostdiving     :       0.04          1          0
  fracdiving       :       0.02          1          0
  veclendiving     :       0.05          1          0
  feaspump         :       0.13          1          0
  objpscostdiving  :       0.02          1          0
  simplerounding   :       0.01          0          0
  rounding         :       0.17       1316          0
  shifting         :       0.37        409          0
  intshifting      :       0.13          2          0
  fixandinfer      :       0.00          0          0
  intdiving        :       0.00          0          0
  actconsdiving    :       0.00          0          0
  octane           :       0.00          0          0
  rens             :       4.05          1          0
  rins             :       0.00          0          0
  localbranching   :       0.00          0          0
  mutation         :       0.00          0          0
  dins             :       0.00          0          0
LP                 :       Time      Calls Iterations  Iter/call   Iter/sec
  primal LP        :       0.13          3       1104     368.00    8492.31
  dual LP          :    9934.05      18629    8540229     458.44     859.69
  barrier LP       :       0.00          0          0       0.00          -
  diving/probing LP:       0.41         58       3124      53.86    7619.51
  strong branching :      41.72       3250     282183      86.83    6763.73
    (at root node) :          -         21       3130     149.05          -
  conflict analysis:       0.00          0          0       0.00          -
B&B Tree           :
  number of runs   :          1
  nodes            :      15426
  nodes (total)    :      15426
  nodes left       :       3140
  max depth        :         59
  max depth (total):         59
  backtracks       :       1640 (10.6%)
  delayed cutoffs  :         49
  repropagations   :       2564 (21989 domain reductions, 23 cutoffs)
  avg switch length:       4.82
  switching time   :       3.03
Solution           :
  Solutions found  :          0 (0 improvements)
  Primal Bound     :          -
  Dual Bound       : +5.41506844441755e+03
  Gap              :   infinite
  Root Dual Bound  : +5.27595830027762e+03
